n = 15;
d = [1, 5, 2, 4, 9, 6, 3, 6, 7, 8, 3, 4, 2, 9, 8];

m = 12;
pre  = [1, 5, 8, 3, 5, 7,10, 5, 2,11, 9,10];
post = [4, 6,13, 4, 7, 9, 3, 9, 8, 1, 6,12];

o = 4;
disj = [{1,3,5,7,9,11}, {4,5,6,7,8,9}, {8,10}, {2,3,9,10,14,15}];
